fcc Si+fcc Ge
    1.000000000
   16.440000000    0.000000000    0.000000000
    0.000000000   16.440000000    0.000000000
    0.000000000    0.000000000   17.925000000
Si    Ge   
108     96
Direct
    0.999999998    0.000000000    0.000000000
    0.833333332    0.000000000    0.152859135
    0.666666665    0.000000000    0.305718271
    0.999999998    0.333333333    0.000000000
    0.833333332    0.333333333    0.152859135
    0.666666665    0.333333333    0.305718271
    0.999999998    0.666666667    0.000000000
    0.833333332    0.666666667    0.152859135
    0.666666665    0.666666667    0.305718271
    0.333333332    0.000000000    0.000000000
    0.166666665    0.000000000    0.152859135
    0.999999998    0.000000000    0.305718271
    0.333333332    0.333333333    0.000000000
    0.166666665    0.333333333    0.152859135
    0.999999998    0.333333333    0.305718271
    0.333333332    0.666666667    0.000000000
    0.166666665    0.666666667    0.152859135
    0.999999998    0.666666667    0.305718271
    0.666666665    0.000000000    0.000000000
    0.499999998    0.000000000    0.152859135
    0.333333332    0.000000000    0.305718271
    0.666666665    0.333333333    0.000000000
    0.499999998    0.333333333    0.152859135
    0.333333332    0.333333333    0.305718271
    0.666666665    0.666666667    0.000000000
    0.499999998    0.666666667    0.152859135
    0.333333332    0.666666667    0.305718271
    0.166666665    0.166666667    0.000000000
    0.999999998    0.166666667    0.152859135
    0.833333332    0.166666667    0.305718271
    0.166666665    0.500000000    0.000000000
    0.999999998    0.500000000    0.152859135
    0.833333332    0.500000000    0.305718271
    0.166666665    0.833333333    0.000000000
    0.999999998    0.833333333    0.152859135
    0.833333332    0.833333333    0.305718271
    0.499999998    0.166666667    0.000000000
    0.333333332    0.166666667    0.152859135
    0.166666665    0.166666667    0.305718271
    0.499999998    0.500000000    0.000000000
    0.333333332    0.500000000    0.152859135
    0.166666665    0.500000000    0.305718271
    0.499999998    0.833333333    0.000000000
    0.333333332    0.833333333    0.152859135
    0.166666665    0.833333333    0.305718271
    0.833333332    0.166666667    0.000000000
    0.666666665    0.166666667    0.152859135
    0.499999998    0.166666667    0.305718271
    0.833333332    0.500000000    0.000000000
    0.666666665    0.500000000    0.152859135
    0.499999998    0.500000000    0.305718271
    0.833333332    0.833333333    0.000000000
    0.666666665    0.833333333    0.152859135
    0.499999998    0.833333333    0.305718271
    0.083333332    0.083333333    0.076429568
    0.916666665    0.083333333    0.229288703
    0.749999998    0.083333333    0.382147838
    0.083333332    0.416666667    0.076429568
    0.916666665    0.416666667    0.229288703
    0.749999998    0.416666667    0.382147838
    0.083333332    0.750000000    0.076429568
    0.916666665    0.750000000    0.229288703
    0.749999998    0.750000000    0.382147838
    0.416666665    0.083333333    0.076429568
    0.249999998    0.083333333    0.229288703
    0.083333332    0.083333333    0.382147838
    0.416666665    0.416666667    0.076429568
    0.249999998    0.416666667    0.229288703
    0.083333332    0.416666667    0.382147838
    0.416666665    0.750000000    0.076429568
    0.249999998    0.750000000    0.229288703
    0.083333332    0.750000000    0.382147838
    0.749999998    0.083333333    0.076429568
    0.583333332    0.083333333    0.229288703
    0.416666665    0.083333333    0.382147838
    0.749999998    0.416666667    0.076429568
    0.583333332    0.416666667    0.229288703
    0.416666665    0.416666667    0.382147838
    0.749999998    0.750000000    0.076429568
    0.583333332    0.750000000    0.229288703
    0.416666665    0.750000000    0.382147838
    0.249999998    0.250000000    0.076429568
    0.083333332    0.250000000    0.229288703
    0.916666665    0.250000000    0.382147838
    0.249999998    0.583333333    0.076429568
    0.083333332    0.583333333    0.229288703
    0.916666665    0.583333333    0.382147838
    0.249999998    0.916666667    0.076429568
    0.083333332    0.916666667    0.229288703
    0.916666665    0.916666667    0.382147838
    0.583333332    0.250000000    0.076429568
    0.416666665    0.250000000    0.229288703
    0.249999998    0.250000000    0.382147838
    0.583333332    0.583333333    0.076429568
    0.416666665    0.583333333    0.229288703
    0.249999998    0.583333333    0.382147838
    0.583333332    0.916666667    0.076429568
    0.416666665    0.916666667    0.229288703
    0.249999998    0.916666667    0.382147838
    0.916666665    0.250000000    0.076429568
    0.749999998    0.250000000    0.229288703
    0.583333332    0.250000000    0.382147838
    0.916666665    0.583333333    0.076429568
    0.749999998    0.583333333    0.229288703
    0.583333332    0.583333333    0.382147838
    0.916666665    0.916666667    0.076429568
    0.749999998    0.916666667    0.229288703
    0.583333332    0.916666667    0.382147838
    0.092024539    0.592024536    0.493723849
    0.967024539    0.217024536    0.651603905
    0.842024539    0.842024536    0.809483961
    0.342024539    0.842024536    0.493723849
    0.217024539    0.467024536    0.651603905
    0.092024539    0.092024536    0.809483961
    0.092024539    0.092024536    0.493723849
    0.967024539    0.717024536    0.651603905
    0.842024539    0.342024536    0.809483961
    0.342024539    0.342024536    0.493723849
    0.217024539    0.967024536    0.651603905
    0.092024539    0.592024536    0.809483961
    0.592024539    0.592024536    0.493723849
    0.467024539    0.217024536    0.651603905
    0.342024539    0.842024536    0.809483961
    0.842024539    0.842024536    0.493723849
    0.717024539    0.467024536    0.651603905
    0.592024539    0.092024536    0.809483961
    0.592024539    0.092024536    0.493723849
    0.467024539    0.717024536    0.651603905
    0.342024539    0.342024536    0.809483961
    0.842024539    0.342024536    0.493723849
    0.717024539    0.967024536    0.651603905
    0.592024539    0.592024536    0.809483961
    0.092024539    0.842024536    0.493723849
    0.967024539    0.467024536    0.651603905
    0.842024539    0.092024536    0.809483961
    0.092024539    0.342024536    0.493723849
    0.967024539    0.967024536    0.651603905
    0.842024539    0.592024536    0.809483961
    0.342024539    0.592024536    0.493723849
    0.217024539    0.217024536    0.651603905
    0.092024539    0.842024536    0.809483961
    0.592024539    0.842024536    0.493723849
    0.467024539    0.467024536    0.651603905
    0.342024539    0.092024536    0.809483961
    0.342024539    0.092024536    0.493723849
    0.217024539    0.717024536    0.651603905
    0.092024539    0.342024536    0.809483961
    0.592024539    0.342024536    0.493723849
    0.467024539    0.967024536    0.651603905
    0.342024539    0.592024536    0.809483961
    0.842024539    0.592024536    0.493723849
    0.717024539    0.217024536    0.651603905
    0.592024539    0.842024536    0.809483961
    0.842024539    0.092024536    0.493723849
    0.717024539    0.717024536    0.651603905
    0.592024539    0.342024536    0.809483961
    0.217024539    0.592024536    0.572663877
    0.092024539    0.217024536    0.730543933
    0.967024539    0.842024536    0.888423989
    0.467024539    0.842024536    0.572663877
    0.342024539    0.467024536    0.730543933
    0.217024539    0.092024536    0.888423989
    0.217024539    0.092024536    0.572663877
    0.092024539    0.717024536    0.730543933
    0.967024539    0.342024536    0.888423989
    0.467024539    0.342024536    0.572663877
    0.342024539    0.967024536    0.730543933
    0.217024539    0.592024536    0.888423989
    0.717024539    0.592024536    0.572663877
    0.592024539    0.217024536    0.730543933
    0.467024539    0.842024536    0.888423989
    0.967024539    0.842024536    0.572663877
    0.842024539    0.467024536    0.730543933
    0.717024539    0.092024536    0.888423989
    0.717024539    0.092024536    0.572663877
    0.592024539    0.717024536    0.730543933
    0.467024539    0.342024536    0.888423989
    0.967024539    0.342024536    0.572663877
    0.842024539    0.967024536    0.730543933
    0.717024539    0.592024536    0.888423989
    0.217024539    0.842024536    0.572663877
    0.092024539    0.467024536    0.730543933
    0.967024539    0.092024536    0.888423989
    0.217024539    0.342024536    0.572663877
    0.092024539    0.967024536    0.730543933
    0.967024539    0.592024536    0.888423989
    0.467024539    0.592024536    0.572663877
    0.342024539    0.217024536    0.730543933
    0.217024539    0.842024536    0.888423989
    0.717024539    0.842024536    0.572663877
    0.592024539    0.467024536    0.730543933
    0.467024539    0.092024536    0.888423989
    0.467024539    0.092024536    0.572663877
    0.342024539    0.717024536    0.730543933
    0.217024539    0.342024536    0.888423989
    0.717024539    0.342024536    0.572663877
    0.592024539    0.967024536    0.730543933
    0.467024539    0.592024536    0.888423989
    0.967024539    0.592024536    0.572663877
    0.842024539    0.217024536    0.730543933
    0.717024539    0.842024536    0.888423989
    0.967024539    0.092024536    0.572663877
    0.842024539    0.717024536    0.730543933
    0.717024539    0.342024536    0.888423989
