calcium zirconate
    1.000000000
    0.000000000    0.000000000    5.761280060
    5.591110229    0.000000000    0.000000000
    0.000000000   36.033739090    0.000000000
Ca    Zr    O    
10     8     26
Direct
    0.048500004    0.012500001    0.333723462
    0.048500004    0.012500001    0.111241151
    0.951499965    0.987500051    0.000000002
    0.951499965    0.987500051    0.444964624
    0.951499965    0.987500051    0.222482313
    0.451500007    0.512499991    0.000000002
    0.451500007    0.512499991    0.444964624
    0.451500007    0.512499991    0.222482313
    0.548499993    0.487500009    0.333723462
    0.548499993    0.487500009    0.111241151
    0.500000000    0.000000000    0.278102884
    0.500000000    0.000000000    0.055620573
    0.000000000    0.500000000    0.278102884
    0.000000000    0.500000000    0.055620573
    0.500000000    0.000000000    0.389344040
    0.500000000    0.000000000    0.166861729
    0.000000000    0.500000000    0.389344040
    0.000000000    0.500000000    0.166861729
    0.960299960    0.603600020    0.333723462
    0.960299960    0.603600020    0.111241151
    0.039700001    0.396399980    0.000000002
    0.039700001    0.396399980    0.444964624
    0.039700001    0.396399980    0.222482313
    0.539700040    0.103600030    0.000000002
    0.539700040    0.103600030    0.444964624
    0.539700040    0.103600030    0.222482313
    0.460300001    0.896399938    0.333723462
    0.460300001    0.896399938    0.111241151
    0.300000021    0.302199996    0.290250418
    0.300000021    0.302199996    0.067768107
    0.700000000    0.697800025    0.043473034
    0.700000000    0.697800025    0.265955345
    0.199999979    0.802199975    0.043473034
    0.199999979    0.802199975    0.265955345
    0.800000000    0.197800004    0.290250418
    0.800000000    0.197800004    0.067768107
    0.700000000    0.697800025    0.401491579
    0.700000000    0.697800025    0.179009268
    0.300000021    0.302199996    0.377196507
    0.300000021    0.302199996    0.154714196
    0.800000000    0.197800004    0.377196507
    0.800000000    0.197800004    0.154714196
    0.199999979    0.802199975    0.401491579
    0.199999979    0.802199975    0.179009268
