calcium zirconate
    1.000000000
    0.000000000    0.000000000    5.761280060
    5.591110229    0.000000000    0.000000000
    0.000000000   36.909181416    0.000000000
Ca    Zr    O    
8     10     28
Direct
    0.048500004    0.012500001    0.066160737
    0.048500004    0.012500001    0.283366029
    0.951499965    0.987500051    0.174763390
    0.951499965    0.987500051    0.391968682
    0.451500007    0.512499991    0.174763390
    0.451500007    0.512499991    0.391968682
    0.548499993    0.487500009    0.066160737
    0.548499993    0.487500009    0.283366029
    0.500000000    0.000000000    0.446269999
    0.500000000    0.000000000    0.011859414
    0.500000000    0.000000000    0.229064706
    0.000000000    0.500000000    0.446269999
    0.000000000    0.500000000    0.011859414
    0.000000000    0.500000000    0.229064706
    0.500000000    0.000000000    0.120462060
    0.500000000    0.000000000    0.337667352
    0.000000000    0.500000000    0.120462060
    0.000000000    0.500000000    0.337667352
    0.960299960    0.603600020    0.066160737
    0.960299960    0.603600020    0.283366029
    0.039700001    0.396399980    0.174763390
    0.039700001    0.396399980    0.391968682
    0.539700040    0.103600030    0.174763390
    0.539700040    0.103600030    0.391968682
    0.460300001    0.896399938    0.066160737
    0.460300001    0.896399938    0.283366029
    0.300000021    0.302199996    0.458129408
    0.300000021    0.302199996    0.023718823
    0.300000021    0.302199996    0.240924115
    0.700000000    0.697800025    0.000000000
    0.700000000    0.697800025    0.217205292
    0.700000000    0.697800025    0.434410585
    0.199999979    0.802199975    0.000000000
    0.199999979    0.802199975    0.217205292
    0.199999979    0.802199975    0.434410585
    0.800000000    0.197800004    0.458129408
    0.800000000    0.197800004    0.023718823
    0.800000000    0.197800004    0.240924115
    0.700000000    0.697800025    0.132321474
    0.700000000    0.697800025    0.349526766
    0.300000021    0.302199996    0.108602653
    0.300000021    0.302199996    0.325807945
    0.800000000    0.197800004    0.108602653
    0.800000000    0.197800004    0.325807945
    0.199999979    0.802199975    0.132321474
    0.199999979    0.802199975    0.349526766
