Hf1 S2
    1.000000000
    3.643366000    0.000000000    0.000000000
   -1.821683000    3.155247000    0.000000000
    0.000000000    0.000000000   30.058821447
Hf    S    
3     6
Direct
    0.000000000    0.000000000    0.486175708
    0.000000000    0.000000000    0.048070840
    0.000000000    0.000000000    0.267123274
    0.666667000    0.333333000    0.000000002
    0.666667000    0.333333000    0.219052436
    0.666667000    0.333333000    0.438104870
    0.333333000    0.666667000    0.534246545
    0.333333000    0.666667000    0.096141677
    0.333333000    0.666667000    0.315194111
