fcc Si+fcc Ge
    1.000000000
   16.440000000    0.000000000    0.000000000
    0.000000000   16.440000000    0.000000000
    0.000000000    0.000000000   17.925000000
Si    Ge   
108     96
Direct
    0.999999998    0.000000000    0.000000000
    0.833333332    0.000000000    0.152859135
    0.666666665    0.000000000    0.305718271
    0.999999998    0.333333333    0.000000000
    0.833333332    0.333333333    0.152859135
    0.666666665    0.333333333    0.305718271
    0.999999998    0.666666667    0.000000000
    0.833333332    0.666666667    0.152859135
    0.666666665    0.666666667    0.305718271
    0.333333332    0.000000000    0.000000000
    0.166666665    0.000000000    0.152859135
    0.999999998    0.000000000    0.305718271
    0.333333332    0.333333333    0.000000000
    0.166666665    0.333333333    0.152859135
    0.999999998    0.333333333    0.305718271
    0.333333332    0.666666667    0.000000000
    0.166666665    0.666666667    0.152859135
    0.999999998    0.666666667    0.305718271
    0.666666665    0.000000000    0.000000000
    0.499999998    0.000000000    0.152859135
    0.333333332    0.000000000    0.305718271
    0.666666665    0.333333333    0.000000000
    0.499999998    0.333333333    0.152859135
    0.333333332    0.333333333    0.305718271
    0.666666665    0.666666667    0.000000000
    0.499999998    0.666666667    0.152859135
    0.333333332    0.666666667    0.305718271
    0.166666665    0.166666667    0.000000000
    0.999999998    0.166666667    0.152859135
    0.833333332    0.166666667    0.305718271
    0.166666665    0.500000000    0.000000000
    0.999999998    0.500000000    0.152859135
    0.833333332    0.500000000    0.305718271
    0.166666665    0.833333333    0.000000000
    0.999999998    0.833333333    0.152859135
    0.833333332    0.833333333    0.305718271
    0.499999998    0.166666667    0.000000000
    0.333333332    0.166666667    0.152859135
    0.166666665    0.166666667    0.305718271
    0.499999998    0.500000000    0.000000000
    0.333333332    0.500000000    0.152859135
    0.166666665    0.500000000    0.305718271
    0.499999998    0.833333333    0.000000000
    0.333333332    0.833333333    0.152859135
    0.166666665    0.833333333    0.305718271
    0.833333332    0.166666667    0.000000000
    0.666666665    0.166666667    0.152859135
    0.499999998    0.166666667    0.305718271
    0.833333332    0.500000000    0.000000000
    0.666666665    0.500000000    0.152859135
    0.499999998    0.500000000    0.305718271
    0.833333332    0.833333333    0.000000000
    0.666666665    0.833333333    0.152859135
    0.499999998    0.833333333    0.305718271
    0.083333332    0.083333333    0.076429568
    0.916666665    0.083333333    0.229288703
    0.749999998    0.083333333    0.382147838
    0.083333332    0.416666667    0.076429568
    0.916666665    0.416666667    0.229288703
    0.749999998    0.416666667    0.382147838
    0.083333332    0.750000000    0.076429568
    0.916666665    0.750000000    0.229288703
    0.749999998    0.750000000    0.382147838
    0.416666665    0.083333333    0.076429568
    0.249999998    0.083333333    0.229288703
    0.083333332    0.083333333    0.382147838
    0.416666665    0.416666667    0.076429568
    0.249999998    0.416666667    0.229288703
    0.083333332    0.416666667    0.382147838
    0.416666665    0.750000000    0.076429568
    0.249999998    0.750000000    0.229288703
    0.083333332    0.750000000    0.382147838
    0.749999998    0.083333333    0.076429568
    0.583333332    0.083333333    0.229288703
    0.416666665    0.083333333    0.382147838
    0.749999998    0.416666667    0.076429568
    0.583333332    0.416666667    0.229288703
    0.416666665    0.416666667    0.382147838
    0.749999998    0.750000000    0.076429568
    0.583333332    0.750000000    0.229288703
    0.416666665    0.750000000    0.382147838
    0.249999998    0.250000000    0.076429568
    0.083333332    0.250000000    0.229288703
    0.916666665    0.250000000    0.382147838
    0.249999998    0.583333333    0.076429568
    0.083333332    0.583333333    0.229288703
    0.916666665    0.583333333    0.382147838
    0.249999998    0.916666667    0.076429568
    0.083333332    0.916666667    0.229288703
    0.916666665    0.916666667    0.382147838
    0.583333332    0.250000000    0.076429568
    0.416666665    0.250000000    0.229288703
    0.249999998    0.250000000    0.382147838
    0.583333332    0.583333333    0.076429568
    0.416666665    0.583333333    0.229288703
    0.249999998    0.583333333    0.382147838
    0.583333332    0.916666667    0.076429568
    0.416666665    0.916666667    0.229288703
    0.249999998    0.916666667    0.382147838
    0.916666665    0.250000000    0.076429568
    0.749999998    0.250000000    0.229288703
    0.583333332    0.250000000    0.382147838
    0.916666665    0.583333333    0.076429568
    0.749999998    0.583333333    0.229288703
    0.583333332    0.583333333    0.382147838
    0.916666665    0.916666667    0.076429568
    0.749999998    0.916666667    0.229288703
    0.583333332    0.916666667    0.382147838
    0.098159508    0.585889567    0.493723849
    0.973159508    0.210889567    0.651603905
    0.848159508    0.835889567    0.809483961
    0.348159508    0.835889567    0.493723849
    0.223159508    0.460889567    0.651603905
    0.098159508    0.085889567    0.809483961
    0.098159508    0.085889567    0.493723849
    0.973159508    0.710889567    0.651603905
    0.848159508    0.335889567    0.809483961
    0.348159508    0.335889567    0.493723849
    0.223159508    0.960889567    0.651603905
    0.098159508    0.585889567    0.809483961
    0.598159508    0.585889567    0.493723849
    0.473159508    0.210889567    0.651603905
    0.348159508    0.835889567    0.809483961
    0.848159508    0.835889567    0.493723849
    0.723159508    0.460889567    0.651603905
    0.598159508    0.085889567    0.809483961
    0.598159508    0.085889567    0.493723849
    0.473159508    0.710889567    0.651603905
    0.348159508    0.335889567    0.809483961
    0.848159508    0.335889567    0.493723849
    0.723159508    0.960889567    0.651603905
    0.598159508    0.585889567    0.809483961
    0.098159508    0.835889567    0.493723849
    0.973159508    0.460889567    0.651603905
    0.848159508    0.085889567    0.809483961
    0.098159508    0.335889567    0.493723849
    0.973159508    0.960889567    0.651603905
    0.848159508    0.585889567    0.809483961
    0.348159508    0.585889567    0.493723849
    0.223159508    0.210889567    0.651603905
    0.098159508    0.835889567    0.809483961
    0.598159508    0.835889567    0.493723849
    0.473159508    0.460889567    0.651603905
    0.348159508    0.085889567    0.809483961
    0.348159508    0.085889567    0.493723849
    0.223159508    0.710889567    0.651603905
    0.098159508    0.335889567    0.809483961
    0.598159508    0.335889567    0.493723849
    0.473159508    0.960889567    0.651603905
    0.348159508    0.585889567    0.809483961
    0.848159508    0.585889567    0.493723849
    0.723159508    0.210889567    0.651603905
    0.598159508    0.835889567    0.809483961
    0.848159508    0.085889567    0.493723849
    0.723159508    0.710889567    0.651603905
    0.598159508    0.335889567    0.809483961
    0.223159508    0.585889567    0.572663877
    0.098159508    0.210889567    0.730543933
    0.973159508    0.835889567    0.888423989
    0.473159508    0.835889567    0.572663877
    0.348159508    0.460889567    0.730543933
    0.223159508    0.085889567    0.888423989
    0.223159508    0.085889567    0.572663877
    0.098159508    0.710889567    0.730543933
    0.973159508    0.335889567    0.888423989
    0.473159508    0.335889567    0.572663877
    0.348159508    0.960889567    0.730543933
    0.223159508    0.585889567    0.888423989
    0.723159508    0.585889567    0.572663877
    0.598159508    0.210889567    0.730543933
    0.473159508    0.835889567    0.888423989
    0.973159508    0.835889567    0.572663877
    0.848159508    0.460889567    0.730543933
    0.723159508    0.085889567    0.888423989
    0.723159508    0.085889567    0.572663877
    0.598159508    0.710889567    0.730543933
    0.473159508    0.335889567    0.888423989
    0.973159508    0.335889567    0.572663877
    0.848159508    0.960889567    0.730543933
    0.723159508    0.585889567    0.888423989
    0.223159508    0.835889567    0.572663877
    0.098159508    0.460889567    0.730543933
    0.973159508    0.085889567    0.888423989
    0.223159508    0.335889567    0.572663877
    0.098159508    0.960889567    0.730543933
    0.973159508    0.585889567    0.888423989
    0.473159508    0.585889567    0.572663877
    0.348159508    0.210889567    0.730543933
    0.223159508    0.835889567    0.888423989
    0.723159508    0.835889567    0.572663877
    0.598159508    0.460889567    0.730543933
    0.473159508    0.085889567    0.888423989
    0.473159508    0.085889567    0.572663877
    0.348159508    0.710889567    0.730543933
    0.223159508    0.335889567    0.888423989
    0.723159508    0.335889567    0.572663877
    0.598159508    0.960889567    0.730543933
    0.473159508    0.585889567    0.888423989
    0.973159508    0.585889567    0.572663877
    0.848159508    0.210889567    0.730543933
    0.723159508    0.835889567    0.888423989
    0.973159508    0.085889567    0.572663877
    0.848159508    0.710889567    0.730543933
    0.723159508    0.335889567    0.888423989
