Mo2 S4
    1.000000000
    3.190316000    0.000000000    0.000000000
   -1.595158000    2.762894000    0.000000000
    0.000000000    0.000000000   32.008772733
Mo    S    
3     6
Direct
    0.333333000    0.666667000    0.048889238
    0.333333000    0.666667000    0.513730678
    0.666667000    0.333333000    0.281309958
    0.666667000    0.333333000    0.097778472
    0.666667000    0.333333000    0.562619911
    0.333333000    0.666667000    0.330199192
    0.666667000    0.333333000    0.000000005
    0.666667000    0.333333000    0.464841444
    0.333333000    0.666667000    0.232420724
