calcium zirconate
    1.000000000
    0.000000000    0.000000000    5.761280060
    5.591110229    0.000000000    0.000000000
    0.000000000   56.951355457    0.000000000
Ca    Zr    O    
18     20     58
Direct
    0.048500004    0.012500001    0.605945488
    0.048500004    0.012500001    0.042877622
    0.048500004    0.012500001    0.183644589
    0.048500004    0.012500001    0.324411555
    0.048500004    0.012500001    0.465178522
    0.951499965    0.987500051    0.113261110
    0.951499965    0.987500051    0.254028076
    0.951499965    0.987500051    0.394795043
    0.951499965    0.987500051    0.535562009
    0.451500007    0.512499991    0.113261110
    0.451500007    0.512499991    0.254028076
    0.451500007    0.512499991    0.394795043
    0.451500007    0.512499991    0.535562009
    0.548499993    0.487500009    0.605945488
    0.548499993    0.487500009    0.042877622
    0.548499993    0.487500009    0.183644589
    0.548499993    0.487500009    0.324411555
    0.548499993    0.487500009    0.465178522
    0.500000000    0.000000000    0.570753747
    0.500000000    0.000000000    0.007685881
    0.500000000    0.000000000    0.148452847
    0.500000000    0.000000000    0.289219814
    0.500000000    0.000000000    0.429986780
    0.000000000    0.500000000    0.570753747
    0.000000000    0.500000000    0.007685881
    0.000000000    0.500000000    0.148452847
    0.000000000    0.500000000    0.289219814
    0.000000000    0.500000000    0.429986780
    0.500000000    0.000000000    0.641137230
    0.500000000    0.000000000    0.078069364
    0.500000000    0.000000000    0.218836331
    0.500000000    0.000000000    0.359603297
    0.500000000    0.000000000    0.500370264
    0.000000000    0.500000000    0.641137230
    0.000000000    0.500000000    0.078069364
    0.000000000    0.500000000    0.218836331
    0.000000000    0.500000000    0.359603297
    0.000000000    0.500000000    0.500370264
    0.960299960    0.603600020    0.605945488
    0.960299960    0.603600020    0.042877622
    0.960299960    0.603600020    0.183644589
    0.960299960    0.603600020    0.324411555
    0.960299960    0.603600020    0.465178522
    0.039700001    0.396399980    0.113261110
    0.039700001    0.396399980    0.254028076
    0.039700001    0.396399980    0.394795043
    0.039700001    0.396399980    0.535562009
    0.539700040    0.103600030    0.113261110
    0.539700040    0.103600030    0.254028076
    0.539700040    0.103600030    0.394795043
    0.539700040    0.103600030    0.535562009
    0.460300001    0.896399938    0.605945488
    0.460300001    0.896399938    0.042877622
    0.460300001    0.896399938    0.183644589
    0.460300001    0.896399938    0.324411555
    0.460300001    0.896399938    0.465178522
    0.300000021    0.302199996    0.578439623
    0.300000021    0.302199996    0.015371757
    0.300000021    0.302199996    0.156138724
    0.300000021    0.302199996    0.296905690
    0.300000021    0.302199996    0.437672657
    0.700000000    0.697800025    0.000000001
    0.700000000    0.697800025    0.140766968
    0.700000000    0.697800025    0.281533934
    0.700000000    0.697800025    0.422300901
    0.700000000    0.697800025    0.563067867
    0.199999979    0.802199975    0.000000001
    0.199999979    0.802199975    0.140766968
    0.199999979    0.802199975    0.281533934
    0.199999979    0.802199975    0.422300901
    0.199999979    0.802199975    0.563067867
    0.800000000    0.197800004    0.578439623
    0.800000000    0.197800004    0.015371757
    0.800000000    0.197800004    0.156138724
    0.800000000    0.197800004    0.296905690
    0.800000000    0.197800004    0.437672657
    0.700000000    0.697800025    0.648823109
    0.700000000    0.697800025    0.085755244
    0.700000000    0.697800025    0.226522210
    0.700000000    0.697800025    0.367289177
    0.700000000    0.697800025    0.508056143
    0.300000021    0.302199996    0.633451355
    0.300000021    0.302199996    0.070383489
    0.300000021    0.302199996    0.211150455
    0.300000021    0.302199996    0.351917422
    0.300000021    0.302199996    0.492684388
    0.800000000    0.197800004    0.633451355
    0.800000000    0.197800004    0.070383489
    0.800000000    0.197800004    0.211150455
    0.800000000    0.197800004    0.351917422
    0.800000000    0.197800004    0.492684388
    0.199999979    0.802199975    0.648823109
    0.199999979    0.802199975    0.085755244
    0.199999979    0.802199975    0.226522210
    0.199999979    0.802199975    0.367289177
    0.199999979    0.802199975    0.508056143
