calcium zirconate
    1.000000000
    0.000000000    0.000000000    5.761280060
    5.591110229    0.000000000    0.000000000
    0.000000000   56.075912714    0.000000000
Ca    Zr    O    
20     18     56
Direct
    0.048500004    0.012500001    0.643340626
    0.048500004    0.012500001    0.071482289
    0.048500004    0.012500001    0.214446873
    0.048500004    0.012500001    0.357411458
    0.048500004    0.012500001    0.500376042
    0.951499965    0.987500051    0.000000001
    0.951499965    0.987500051    0.142964586
    0.951499965    0.987500051    0.285929170
    0.951499965    0.987500051    0.428893754
    0.951499965    0.987500051    0.571858338
    0.451500007    0.512499991    0.000000001
    0.451500007    0.512499991    0.142964586
    0.451500007    0.512499991    0.285929170
    0.451500007    0.512499991    0.428893754
    0.451500007    0.512499991    0.571858338
    0.548499993    0.487500009    0.643340626
    0.548499993    0.487500009    0.071482289
    0.548499993    0.487500009    0.214446873
    0.548499993    0.487500009    0.357411458
    0.548499993    0.487500009    0.500376042
    0.500000000    0.000000000    0.607599480
    0.500000000    0.000000000    0.035741143
    0.500000000    0.000000000    0.178705727
    0.500000000    0.000000000    0.321670312
    0.500000000    0.000000000    0.464634896
    0.000000000    0.500000000    0.607599480
    0.000000000    0.500000000    0.035741143
    0.000000000    0.500000000    0.178705727
    0.000000000    0.500000000    0.321670312
    0.000000000    0.500000000    0.464634896
    0.500000000    0.000000000    0.107223435
    0.500000000    0.000000000    0.250188020
    0.500000000    0.000000000    0.393152604
    0.500000000    0.000000000    0.536117188
    0.000000000    0.500000000    0.107223435
    0.000000000    0.500000000    0.250188020
    0.000000000    0.500000000    0.393152604
    0.000000000    0.500000000    0.536117188
    0.960299960    0.603600020    0.643340626
    0.960299960    0.603600020    0.071482289
    0.960299960    0.603600020    0.214446873
    0.960299960    0.603600020    0.357411458
    0.960299960    0.603600020    0.500376042
    0.039700001    0.396399980    0.000000001
    0.039700001    0.396399980    0.142964586
    0.039700001    0.396399980    0.285929170
    0.039700001    0.396399980    0.428893754
    0.039700001    0.396399980    0.571858338
    0.539700040    0.103600030    0.000000001
    0.539700040    0.103600030    0.142964586
    0.539700040    0.103600030    0.285929170
    0.539700040    0.103600030    0.428893754
    0.539700040    0.103600030    0.571858338
    0.460300001    0.896399938    0.643340626
    0.460300001    0.896399938    0.071482289
    0.460300001    0.896399938    0.214446873
    0.460300001    0.896399938    0.357411458
    0.460300001    0.896399938    0.500376042
    0.300000021    0.302199996    0.615405346
    0.300000021    0.302199996    0.043547009
    0.300000021    0.302199996    0.186511594
    0.300000021    0.302199996    0.329476178
    0.300000021    0.302199996    0.472440762
    0.700000000    0.697800025    0.027935274
    0.700000000    0.697800025    0.170899858
    0.700000000    0.697800025    0.313864442
    0.700000000    0.697800025    0.456829026
    0.700000000    0.697800025    0.599793611
    0.199999979    0.802199975    0.027935274
    0.199999979    0.802199975    0.170899858
    0.199999979    0.802199975    0.313864442
    0.199999979    0.802199975    0.456829026
    0.199999979    0.802199975    0.599793611
    0.800000000    0.197800004    0.615405346
    0.800000000    0.197800004    0.043547009
    0.800000000    0.197800004    0.186511594
    0.800000000    0.197800004    0.329476178
    0.800000000    0.197800004    0.472440762
    0.700000000    0.697800025    0.115029305
    0.700000000    0.697800025    0.257993889
    0.700000000    0.697800025    0.400958473
    0.700000000    0.697800025    0.543923057
    0.300000021    0.302199996    0.099417570
    0.300000021    0.302199996    0.242382154
    0.300000021    0.302199996    0.385346739
    0.300000021    0.302199996    0.528311323
    0.800000000    0.197800004    0.099417570
    0.800000000    0.197800004    0.242382154
    0.800000000    0.197800004    0.385346739
    0.800000000    0.197800004    0.528311323
    0.199999979    0.802199975    0.115029305
    0.199999979    0.802199975    0.257993889
    0.199999979    0.802199975    0.400958473
    0.199999979    0.802199975    0.543923057
