calcium zirconate
    1.000000000
    0.000000000    0.000000000    5.761280060
    5.591110229    0.000000000    0.000000000
    0.000000000   26.025304079    0.000000000
Ca    Zr    O    
8     6     20
Direct
    0.048500004    0.012500001    0.462062004
    0.048500004    0.012500001    0.154020664
    0.951499965    0.987500051    0.000000003
    0.951499965    0.987500051    0.308041343
    0.451500007    0.512499991    0.000000003
    0.451500007    0.512499991    0.308041343
    0.548499993    0.487500009    0.462062004
    0.548499993    0.487500009    0.154020664
    0.500000000    0.000000000    0.385051669
    0.500000000    0.000000000    0.077010329
    0.000000000    0.500000000    0.385051669
    0.000000000    0.500000000    0.077010329
    0.500000000    0.000000000    0.231030999
    0.000000000    0.500000000    0.231030999
    0.960299960    0.603600020    0.462062004
    0.960299960    0.603600020    0.154020664
    0.039700001    0.396399980    0.000000003
    0.039700001    0.396399980    0.308041343
    0.539700040    0.103600030    0.000000003
    0.539700040    0.103600030    0.308041343
    0.460300001    0.896399938    0.462062004
    0.460300001    0.896399938    0.154020664
    0.300000021    0.302199996    0.401870726
    0.300000021    0.302199996    0.093829386
    0.700000000    0.697800025    0.060191265
    0.700000000    0.697800025    0.368232605
    0.199999979    0.802199975    0.060191265
    0.199999979    0.802199975    0.368232605
    0.800000000    0.197800004    0.401870726
    0.800000000    0.197800004    0.093829386
    0.700000000    0.697800025    0.247850063
    0.300000021    0.302199996    0.214211944
    0.800000000    0.197800004    0.214211944
    0.199999979    0.802199975    0.247850063
