calcium zirconate
    1.000000000
    0.000000000    0.000000000    5.761280060
    5.591110229    0.000000000    0.000000000
    0.000000000   26.900746822    0.000000000
Ca    Zr    O    
6     8     22
Direct
    0.048500004    0.012500001    0.388792487
    0.048500004    0.012500001    0.090775871
    0.951499965    0.987500051    0.239784188
    0.451500007    0.512499991    0.239784188
    0.548499993    0.487500009    0.388792487
    0.548499993    0.487500009    0.090775871
    0.500000000    0.000000000    0.314288333
    0.500000000    0.000000000    0.016271717
    0.000000000    0.500000000    0.314288333
    0.000000000    0.500000000    0.016271717
    0.500000000    0.000000000    0.463296641
    0.500000000    0.000000000    0.165280025
    0.000000000    0.500000000    0.463296641
    0.000000000    0.500000000    0.165280025
    0.960299960    0.603600020    0.388792487
    0.960299960    0.603600020    0.090775871
    0.039700001    0.396399980    0.239784188
    0.539700040    0.103600030    0.239784188
    0.460300001    0.896399938    0.388792487
    0.460300001    0.896399938    0.090775871
    0.300000021    0.302199996    0.330560040
    0.300000021    0.302199996    0.032543424
    0.700000000    0.697800025    0.000000003
    0.700000000    0.697800025    0.298016619
    0.199999979    0.802199975    0.000000003
    0.199999979    0.802199975    0.298016619
    0.800000000    0.197800004    0.330560040
    0.800000000    0.197800004    0.032543424
    0.700000000    0.697800025    0.479568355
    0.700000000    0.697800025    0.181551739
    0.300000021    0.302199996    0.447024936
    0.300000021    0.302199996    0.149008320
    0.800000000    0.197800004    0.447024936
    0.800000000    0.197800004    0.149008320
    0.199999979    0.802199975    0.479568355
    0.199999979    0.802199975    0.181551739
